7	3	5	12	14	17	15	16	15	12	14	13	4	17	13	13	9	17	19	6
5	7	18	11	2	10	7	6	10	15	2	14	18	7	5	15	4	19	5	9
18	12	19	5	19	20	6	12	7	7	19	13	7	19	19	11	12	13	3	14
12	20	17	19	19	10	2	20	17	18	7	1	2	20	8	7	8	3	13	7
